# Generated by ConicBenchmarkUtilities.jl
VER
2

OBJSENSE
MIN

VAR
84 1
F 84

INT
10
8
9
10
11
12
13
14
15
16
17

CON
226 214
L= 1
L= 1
L= 1
L= 1
L= 1
L= 1
L= 1
EXP 3
L+ 1
L+ 1
L= 1
L= 1
L= 1
L= 1
L+ 1
L+ 1
L+ 1
L+ 1
EXP 3
L+ 1
L+ 1
L= 1
L= 1
L= 1
L= 1
L+ 1
L+ 1
L+ 1
L+ 1
L= 1
L= 1
L= 1
L= 1
L= 1
L+ 1
L+ 1
L+ 1
L+ 1
EXP 3
L+ 1
L+ 1
L= 1
L= 1
L= 1
L= 1
L+ 1
L+ 1
L+ 1
L+ 1
L= 1
L= 1
L= 1
L= 1
L= 1
L= 1
L= 1
L= 1
L+ 1
L+ 1
L+ 1
L+ 1
L+ 1
L+ 1
EXP 3
L+ 1
L+ 1
L= 1
L= 1
L= 1
L= 1
L+ 1
L+ 1
L+ 1
L+ 1
EXP 3
L+ 1
L+ 1
L= 1
L= 1
L= 1
L= 1
L+ 1
L+ 1
L+ 1
L+ 1
EXP 3
L+ 1
L+ 1
L= 1
L= 1
L= 1
L= 1
L+ 1
L+ 1
L+ 1
L+ 1
L= 1
L= 1
L= 1
L= 1
L= 1
L+ 1
L+ 1
L+ 1
L+ 1
L= 1
L= 1
L= 1
L= 1
L= 1
L+ 1
L+ 1
L+ 1
L+ 1
L= 1
L+ 1
L+ 1
L+ 1
L+ 1
L+ 1
L+ 1
L+ 1
L+ 1
L+ 1
L+ 1
L+ 1
L+ 1
L+ 1
L+ 1
L+ 1
L+ 1
L+ 1
L+ 1
L+ 1
L+ 1
L+ 1
L+ 1
L+ 1
L+ 1
L+ 1
L+ 1
L+ 1
L+ 1
L+ 1
L+ 1
L+ 1
L+ 1
L+ 1
L+ 1
L+ 1
L+ 1
L+ 1
L+ 1
L+ 1
L+ 1
L+ 1
L+ 1
L+ 1
L+ 1
L+ 1
L+ 1
L+ 1
L+ 1
L+ 1
L+ 1
L+ 1
L+ 1
L+ 1
L+ 1
L+ 1
L+ 1
L+ 1
L+ 1
L+ 1
L+ 1
L+ 1
L+ 1
L+ 1
L+ 1
L+ 1
L+ 1
L+ 1
L+ 1
L+ 1
L+ 1
L+ 1
L+ 1
L+ 1
L+ 1
L+ 1
L+ 1
L+ 1
L+ 1
L+ 1
L+ 1
L+ 1
L+ 1
L+ 1
L+ 1
L+ 1
L+ 1
L+ 1
L+ 1
L+ 1
L+ 1
L+ 1
L+ 1
L+ 1
L+ 1
L+ 1
L+ 1
L+ 1
L+ 1
L+ 1

OBJACOORD
1
18 -1.0

ACOORD
380
0 0 5.0
3 0 -1.0
144 0 1.0
0 1 -2.0
61 1 1.0
149 1 1.0
150 1 -1.0
0 2 200.0
6 2 -1.0
158 2 1.0
0 3 250.0
77 3 1.0
159 3 1.0
0 4 200.0
90 4 1.0
160 4 1.0
0 5 200.0
103 5 1.0
161 5 1.0
0 6 500.0
112 6 1.0
162 6 1.0
0 7 350.0
121 7 1.0
163 7 1.0
0 8 -5.0
7 8 1.0
8 8 1.0
10 8 1.0
16 8 10.0
17 8 -10.0
18 8 2.39789527279837
19 8 -2.39789527279837
126 8 1.0
129 8 1.0
130 8 1.0
131 8 1.0
206 8 1.0
207 8 -1.0
0 9 -8.0
20 9 1.0
21 9 1.0
23 9 1.0
29 9 10.0
30 9 -10.0
31 9 2.87747432735804
32 9 -2.87747432735804
126 9 1.0
129 9 1.0
130 9 1.0
131 9 1.0
208 9 1.0
209 9 -1.0
0 10 -6.0
38 10 2.87747432735804
39 10 -2.87747432735804
40 10 2.15810574551853
41 10 -2.15810574551853
127 10 -1.0
129 10 -1.0
132 10 1.0
133 10 1.0
210 10 1.0
211 10 -1.0
0 11 -10.0
42 11 1.0
43 11 1.0
45 11 1.0
51 11 2.87747432735804
52 11 -2.87747432735804
53 11 2.03277599268042
54 11 -2.03277599268042
128 11 -1.0
130 11 -1.0
134 11 1.0
212 11 1.0
213 11 -1.0
0 12 -6.0
63 12 2.87747432735804
64 12 -2.87747432735804
65 12 7.0
66 12 -7.0
67 12 3.5
68 12 -3.5
131 12 -1.0
135 12 1.0
136 12 1.0
214 12 1.0
215 12 -1.0
0 13 -7.0
69 13 1.0
70 13 1.0
72 13 1.0
78 13 2.15810574551853
79 13 -2.15810574551853
80 13 1.43746550029693
81 13 -1.43746550029693
127 13 1.0
132 13 -1.0
216 13 1.0
217 13 -1.0
0 14 -4.0
82 14 1.0
83 14 1.0
85 14 1.0
91 14 2.15810574551853
92 14 -2.15810574551853
93 14 1.03497516021379
94 14 -1.03497516021379
127 14 1.0
133 14 -1.0
218 14 1.0
219 14 -1.0
0 15 -5.0
95 15 1.0
96 15 1.0
98 15 1.0
104 15 2.03277599268042
105 15 -2.03277599268042
106 15 1.10947836929589
107 15 -1.10947836929589
128 15 1.0
134 15 -1.0
220 15 1.0
221 15 -1.0
0 16 -2.0
113 16 3.5
114 16 -3.5
115 16 3.15
116 16 -3.15
135 16 -1.0
222 16 1.0
223 16 -1.0
0 17 -4.0
122 17 3.5
123 17 -3.5
124 17 2.1
125 17 -2.1
136 17 -1.0
224 17 1.0
225 17 -1.0
0 18 -1.0
1 19 1.0
137 19 1.0
138 19 -1.0
1 20 -1.0
14 20 1.0
139 20 1.0
1 21 -1.0
27 21 1.0
140 21 1.0
2 22 -1.0
15 22 1.0
141 22 1.0
2 23 -1.0
28 23 1.0
142 23 1.0
2 24 1.0
3 24 1.0
143 24 1.0
3 25 -1.0
4 25 1.0
145 25 1.0
4 26 -1.0
36 26 1.0
146 26 1.0
4 27 -1.0
49 27 1.0
147 27 1.0
4 28 -1.0
60 28 1.0
148 28 1.0
5 29 1.0
37 29 1.0
151 29 1.0
5 30 -1.0
76 30 1.0
154 30 1.0
5 31 -1.0
89 31 1.0
155 31 1.0
6 32 1.0
62 32 1.0
153 32 1.0
6 33 -1.0
111 33 1.0
156 33 1.0
6 34 -1.0
120 34 1.0
157 34 1.0
9 35 -1.0
11 35 -1.0
7 36 1.0
10 36 1.0
14 36 -1.0
16 36 -1.0
164 36 1.0
11 37 -1.0
15 37 -1.0
18 37 -1.0
168 37 1.0
12 38 1.0
14 38 -1.0
17 38 -1.0
165 38 1.0
13 39 1.0
15 39 -1.0
19 39 -1.0
169 39 1.0
22 40 -1.0
24 40 -1.2
20 41 1.0
23 41 1.0
27 41 -1.0
29 41 -1.0
166 41 1.0
24 42 -1.0
28 42 -1.0
31 42 -1.0
170 42 1.0
25 43 1.0
27 43 -1.0
30 43 -1.0
167 43 1.0
26 44 1.0
28 44 -1.0
32 44 -1.0
171 44 1.0
33 45 -0.75
36 45 -1.0
38 45 -1.0
172 45 1.0
33 46 1.0
37 46 -1.0
40 46 -1.0
180 46 1.0
34 47 1.0
36 47 -1.0
39 47 -1.0
173 47 1.0
35 48 1.0
37 48 -1.0
41 48 -1.0
181 48 1.0
44 49 -1.0
46 49 -1.5
42 50 1.0
45 50 1.0
49 50 -1.0
51 50 -1.0
174 50 1.0
46 51 -1.0
50 51 -1.0
53 51 -1.0
182 51 1.0
47 52 1.0
49 52 -1.0
52 52 -1.0
175 52 1.0
48 53 1.0
50 53 -1.0
54 53 -1.0
184 53 1.0
50 54 1.0
102 54 1.0
152 54 1.0
55 55 -1.0
60 55 -1.0
63 55 -1.0
176 55 1.0
55 56 1.0
56 56 1.0
62 56 -1.0
67 56 -1.0
186 56 1.0
56 57 -0.5
61 57 -1.0
65 57 -1.0
178 57 1.0
57 58 1.0
60 58 -1.0
64 58 -1.0
177 58 1.0
58 59 1.0
61 59 -1.0
66 59 -1.0
179 59 1.0
59 60 1.0
62 60 -1.0
68 60 -1.0
187 60 1.0
71 61 -1.0
73 61 -1.25
69 62 1.0
72 62 1.0
76 62 -1.0
78 62 -1.0
188 62 1.0
73 63 -1.0
77 63 -1.0
80 63 -1.0
196 63 1.0
74 64 1.0
76 64 -1.0
79 64 -1.0
189 64 1.0
75 65 1.0
77 65 -1.0
81 65 -1.0
197 65 1.0
84 66 -1.0
86 66 -0.9
82 67 1.0
85 67 1.0
89 67 -1.0
91 67 -1.0
190 67 1.0
86 68 -1.0
90 68 -1.0
93 68 -1.0
198 68 1.0
87 69 1.0
89 69 -1.0
92 69 -1.0
191 69 1.0
88 70 1.0
90 70 -1.0
94 70 -1.0
199 70 1.0
97 71 -1.0
99 71 -1.0
95 72 1.0
98 72 1.0
102 72 -1.0
104 72 -1.0
183 72 1.0
99 73 -1.0
103 73 -1.0
106 73 -1.0
200 73 1.0
100 74 1.0
102 74 -1.0
105 74 -1.0
185 74 1.0
101 75 1.0
103 75 -1.0
107 75 -1.0
201 75 1.0
108 76 -0.9
111 76 -1.0
113 76 -1.0
192 76 1.0
108 77 1.0
112 77 -1.0
115 77 -1.0
202 77 1.0
109 78 1.0
111 78 -1.0
114 78 -1.0
193 78 1.0
110 79 1.0
112 79 -1.0
116 79 -1.0
203 79 1.0
117 80 -0.6
120 80 -1.0
122 80 -1.0
194 80 1.0
117 81 1.0
121 81 -1.0
124 81 -1.0
204 81 1.0
118 82 1.0
120 82 -1.0
123 82 -1.0
195 82 1.0
119 83 1.0
121 83 -1.0
125 83 -1.0
205 83 1.0

BCOORD
34
17 10.0
19 2.39789527279837
30 10.0
32 2.87747432735804
39 2.87747432735804
41 2.15810574551853
52 2.87747432735804
54 2.03277599268042
64 2.87747432735804
66 7.0
68 3.5
79 2.15810574551853
81 1.43746550029693
92 2.15810574551853
94 1.03497516021379
105 2.03277599268042
107 1.10947836929589
114 3.5
116 3.15
123 3.5
125 2.1
126 -1.0
138 10.0
150 7.0
207 1.0
209 1.0
211 1.0
213 1.0
215 1.0
217 1.0
219 1.0
221 1.0
223 1.0
225 1.0
